36 500
2 182
2 178
3 141
2 108
4 118
11 182
7 196
8 143
6 119
4 194
3 177
4 178
3 153
5 128
9 182
4 196
7 172
5 108
10 168
6 168
6 119
4 110
9 177
9 198
8 182
5 143
5 194
7 141
9 110
5 172
8 149
5 198
4 118
7 128
3 153
3 149
